50 8
540 935
230 897
160 453
346 486
546 564
413 920
262 903
135 861
594 894
822 518
656 835
801 607
167 424
732 263
772 534
657 771
893 930
683 556
335 582
736 97
516 594
464 148
778 685
766 177
693 707
160 452
744 444
416 947
914 420
774 720
730 746
574 948
832 153
281 706
835 190
306 500
280 242
580 795
439 857
687 317
729 175
657 224
636 724
234 661
349 760
238 199
191 535
208 837
345 816
201 677
